1027
1003
1003
1003
1003
1001
1003
1003
991
1003
981
981
998
998
1038
1030
1050
1079
1052
1052
1012
1012
1012
1012
1012
922
922
922
991
991
973
963
1005
1005
1041
980
909
890
940
940
940
1008
940
940
1023
956
945
945
945
945
997
918
918
918
918
941
941
1008
978
978
909
909
909
909
909
909
909
943
943
957
969
1001
1001
990
939
939
1027
989
828
828
801
771
771
771
771
977
922
1001
1001
984
1055
1049
1021
997
997
959
959
959
959
959
959
964
940
940
940
927
927
927
987
917
914
914
917
984
984
851
851
851
949
948
906
948
948
950
950
950
983
865
949
986
979
986
772
772
772
772
772
895
895
896
844
896
896
938
1010
936
1010
1006
923
923
950
965
965
965
948
965
934
955
955
955
955
955
885
885
885
885
885
885
885
946
930
946
880
880
880
880
921
937
981
1014
821
916
915
915
950
950
957
957
957
900
900
900
936
936
915
915
915
842
842
941
941
941
926
925
863
863
863
842
893
893
942
942
942
847
942
937
888
888
888
888
953
957
828
876
876
939
941
857
857
941
925
925
920
1006
932
865
874
932
949
919
919
919
843
817
817
817
936
936
934
936
912
912
912
912
974
946
919
827
827
946
914
914
914
817
817
748
748
949
823
823
953
956
956
971
971
909
909
909
909
909
959
959
899
899
899
897
897
899
899
899
899
899
898
892
892
892
892
898
898
897
897
858
858
858
827
858
858
858
858
935
896
896
896
896
896
896
896
896
896
935
935
994
984
949
949
949
920
949
949
902
902
902
902
902
902
902
933
854
854
854
809
809
809
891
891
813
813
813
813
813
726
726
726
708
872
926
920
827
827
827
827
827
921
945
945
945
951
932
869
820
820
967
883
767
767
767
816
824
830
830
830
845
845
770
799
799
799
799
885
885
885
885
885
777
777
777
938
929
895
880
922
922
875
844
924
866
866
866
866
887
887
870
864
864
854
881
881
856
856
859
859
907
796
796
905
810
845
845
918
918
861
861
861
840
837
837
837
806
806
806
806
772
806
806
806
806
750
816
795
722
722
722
770
781
781
767
767
767
767
767
767
767
767
695
695
767
767
774
812
812
868
871
840
763
763
763
680
680
673
673
741
741
739
739
739
739
742
742
752
827
750
857
843
710
710
768
819
802
823
726
726
726
776
769
716
716
716
758
758
758
758
758
758
757
757
757
757
721
721
721
721
721
746
708
683
708
708
708
708
708
708
708
726
729
704
704
698
693
693
693
693
693
704
674
704
704
704
661
661
704
704
704
704
692
679
679
679
679
679
679
679
672
672
647
695
688
688
688
721
708
618
608
682
682
682
682
648
680
685
707
707
658
707
707
704
687
618
665
590
590
638
638
638
613
611
601
611
611
611
611
611
611
630
630
660
664
680
684
666
649
649
639
594
594
565
565
542
565
565
565
565
565
565
565
621
608
612
597
597
597
564
597
574
597
598
598
574
556
567
567
567
567
567
531
531
510
510
510
510
510
510
510
554
558
558
567
539
539
539
606
606
591
575
591
591
624
538
559
559
547
601
601
575
587
587
587
581
584
584
584
568
568
568
584
584
584
584
579
579
584
586
560
560
560
588
588
588
588
531
531
531
531
531
571
519
519
519
519
625
612
575
550
612
612
612
612
548
624
590
590
590
590
564
564
564
564
564
564
564
564
564
564
567
556
567
567
587
587
568
568
593
536
536
536
536
531
531
536
536
536
530
530
507
507
507
530
530
530
530
530
530
530
518
518
525
515
526
526
537
551
551
555
542
481
464
539
481
481
481
481
481
481
481
481
481
480
481
481
481
481
481
481
481
481
481
481
513
513
562
524
524
524
519
519
490
491
491
491
523
491
484
484
468
468
468
507
468
468
539
468
468
468
501
501
501
456
456
456
456
456
456
437
437
437
437
437
437
510
510
510
510
500
500
488
451
451
451
451
451
451
451
451
451
451
451
451
451
451
476
481
476
441
448
416
452
452
441
441
409
409
409
409
409
409
409
409
409
416
416
416
416
416
416
427
445
408
408
408
408
391
391
391
408
408
427
408
408
408
408
408
400
408
408
408
408
408
408
408
408
412
412
364
367
367
412
412
412
407
407
412
427
427
421
401
401
380
401
396
396
385
385
385
385
385
402
425
394
394
397
397
397
362
362
362
413
420
405
405
405
405
394
385
370
358
358
358
358
358
358
358
358
370
385
357
329
329
329
329
329
329
329
329
329
329
381
381
381
381
378
381
381
381
364
364
364
381
370
364
364
364
364
364
364
364
364
364
364
364
364
364
364
364
364
360
364
364
364
364
364
364
364
364
364
364
381
364
364
364
364
364
364
364
364
364
364
364
364
361
364
364
364
364
364
364
364
364
364
364
364
364
364
364
364
364
364
364
364
358
361
364
364
364
364
343
343
364
343
343
343
343
343
343
343
343
343
343
343
343
343
343
343
343
343
343
343
343
343
343
351
343
343
343
343
343
343
343
343
343
343
358
343
343
357
357
358
358
358
357
357
358
357
357
357
343
343
343
343
343
343
343
343
343
343
343
343
343
343
331
331
343
343
343
343
343
343
336
343
343
343
343
343
336
336
336
343
343
336
343
343
336
336
336
336
336
336
336
336
336
336
336
336
336
336
336
331
336
336
336
336
336
336
336
336
336
336
336
336
336
336
336
336
336
336
336
336
336
336
336
336
336
336
336
336
336
336
336
336
336
336
336
336
336
336
336
336
336
336
336
336
336
336
336
336
336
336
336
336
336
336
336
336
336
336
336
336
336
336
336
336
336
336
336
336
336
336
336
336
336
336
336
336
336
336
336
331
331
336
336
336
336
336
336
331
336
331
331
331
331
331
331
331
331
331
331
331
331
336
336
331
331
336
331
331
331
331
331
331
331
331
331
331
331
331
331
331
331
331
331
331
331
331
331
331
331
331
331
331
331
331
331
331
331
331
331
331
331
331
331
331
331
331
331
331
331
331
331
331
331
331
331
331
331
331
336
331
331
336
331
331
331
331
331
331
331
331
331
331
331
331
331
331
331
331
331
331
331
331
331
331
331
331
331
331
331
331
331
331
331
336
336
331
331
331
331
331
331
331
331
331
331
331
336
336
336
336
336
336
336
336
336
336
336
336
336
336
336
336
336
336
336
336
336
336
336
336
336
336
336
336
336
336
336
336
336
336
336
336
336
336
336
336
331
336
336
336
336
336
336
336
336
336
336
336
336
336
336
336
336
336
336
336
336
336
336
336
336
336
331
336
336
336
336
336
336
336
336
336
336
336
336
336
336
336
336
336
336
336
336
336
336
336
336
336
336
336
336
336
336
336
336
336
336
336
336
336
336
336
336
336
336
336
336
336
336
336
336
336
336
336
336
336
336
336
336
336
336
336
336
336
336
336
331
331
331
331
331
331
331
331
331
331
331
331
331
331
331
331
331
331
331
331
331
331
331
331
331
331
331
331
331
331
331
331
331
331
331
331
331
331
331
331
336
336
336
336
336
336
336
336
336
336
336
336
331
331
331
331
331
331
331
331
331
331
331
331
331
331
331
331
331
331
331
331
331
331
331
336
336
336
336
336
336
331
331
331
331
336
336
336
336
336
336
336
336
336
336
331
331
331
331
331
331
331
331
331
331
331
331
331
331
331
331
331
331
331
331
331
331
331
331
331
331
331
331
331
331
331
336
336
336
336
336
336
336
336
336
336
336
336
336
336
336
336
336
336
336
336
336
336
336
336
336
336
336
336
336
336
336
336
336
336
336
331
331
331
331
331
331
331
331
331
331
331
331
331
331
331
331
331
331
331
331
331
331
331
331
331
331
331
331
331
331
331
331
331
331
331
331
331
331
331
331
331
331
331
331
331
331
331
331
331
331
331
331
331
331
331
331
331
331
331
331
331
331
331
331
331
331
331
331
331
331
331
331
331
331
331
331
331
331
331
331
331
331
331
331
331
331
331
331
331
331
331
331
331
331
331
331
331
331
331
331
331
331
331
331
331
331
331
331
331
331
331
331
331
331
331
331
331
331
331
331
331
331
331
331
331
331
331
331
331
331
331
331
331
331
331
331
331
331
331
331
331
331
331
331
331
331
331
331
331
331
331
331
331
331
331
331
331
331
331
331
331
331
331
331
331
331
331
331
331
331
331
331
331
331
331
331
331
331
331
331
331
331
331
336
336
336
336
336
336
336
336
336
336
336
336
336
336
336
336
336
336
336
336
336
336
336
331
336
336
336
336
336
336
336
336
336
336
336
336
336
336
336
331
336
336
336
336
336
336
336
331
331
331
331
336
336
336
336
336
336
336
336
336
336
336
336
336
336
336
336
336
336
336
336
336
336
336
336
336
336
336
336
336
336
336
336
336
336
336
336
336
336
336
336
336
336
336
336
336
336
336
336
336
336
336
336
336
336
336
336
336
336
336
336
336
336
336
336
336
336
336
336
336
336
336
336
336
336
336
336
336
336
336
336
336
336
336
336
336
336
336
336
336
336
336
336
336
336
336
336
336
336
336
336
336
336
336
336
336
336
336
336
336
336
336
336
336
336
